2003762
0 1 106843
1 2 14475
2 16 20583
16 12 27808
12 10 112236
10 19 34792
19 4 53722
4 17 90145
17 13 103707
13 7 61569
7 14 67784
14 18 105166
18 3 238489
3 15 223220
15 9 21150
9 5 253562
5 11 255761
11 8 50021
8 6 126907
6 0 35812
